[runlim] version:		1.10
[runlim] time limit:		1800 seconds
[runlim] real time limit:	1800 seconds
[runlim] space limit:		30000 MB
[runlim] argv[0]:		python
[runlim] argv[1]:		FE.py
[runlim] argv[2]:		Q-494_bus.mtx.rnd
[runlim] start:			Thu Oct  3 15:25:02 2024
[runlim] main pid:		412481
[runlim] log captured:
[runlim] sample:		10.0 time, 10.4 real, 798.9 MB
[runlim] sample:		20.0 time, 20.4 real, 1507.4 MB
246
219
Version identifier: 20.1.0.0 | 2020-11-10 | 9bedb6d68
CPXPARAM_Simplex_PGradient                       4
CPXPARAM_Read_DataCheck                          1
CPXPARAM_MIP_Strategy_File                       3
CPXPARAM_TimeLimit                               1800
CPXPARAM_WorkMem                                 122880
[runlim] sample:		30.0 time, 30.4 real, 2162.5 MB
[runlim] sample:		40.0 time, 40.4 real, 2981.2 MB
[runlim] sample:		50.0 time, 50.4 real, 2981.2 MB
Presolve has eliminated 247 rows and 247 columns...
Tried aggregator 1 time.
[runlim] sample:		61.6 time, 60.4 real, 3016.9 MB
[runlim] sample:		71.6 time, 70.4 real, 3016.9 MB
[runlim] sample:		81.6 time, 80.4 real, 3016.9 MB
[runlim] sample:		91.6 time, 90.4 real, 3016.9 MB
[runlim] sample:		101.6 time, 100.4 real, 3016.9 MB
[runlim] sample:		111.6 time, 110.4 real, 3016.9 MB
[runlim] sample:		121.6 time, 120.4 real, 3016.9 MB
Presolve has eliminated 247 rows and 247 columns...
MIP Presolve eliminated 247 rows and 247 columns.
MIP Presolve modified 32631 coefficients.
Reduced MIP has 162575 rows, 243789 columns, and 71023317 nonzeros.
Reduced MIP has 243789 binaries, 0 generals, 0 SOSs, and 0 indicators.
Presolve time = 91.50 sec. (79593.04 ticks)
[runlim] sample:		131.6 time, 130.4 real, 3013.5 MB
[runlim] sample:		141.6 time, 140.4 real, 6977.5 MB
[runlim] sample:		151.6 time, 150.4 real, 6992.8 MB
[runlim] sample:		161.6 time, 160.4 real, 7000.7 MB
[runlim] sample:		171.6 time, 170.4 real, 7000.7 MB
[runlim] sample:		181.6 time, 180.4 real, 7000.7 MB
[runlim] sample:		191.6 time, 190.4 real, 7000.7 MB
[runlim] sample:		201.6 time, 200.4 real, 7000.7 MB
[runlim] sample:		211.6 time, 210.4 real, 7000.7 MB
[runlim] sample:		221.6 time, 220.4 real, 7000.7 MB
[runlim] sample:		231.6 time, 230.4 real, 4504.7 MB
Probing time = 0.61 sec. (101.74 ticks)
[runlim] sample:		242.8 time, 240.4 real, 6499.2 MB
Presolve has eliminated 0 rows and 0 columns...
Tried aggregator 1 time.
[runlim] sample:		252.8 time, 250.4 real, 6780.3 MB
[runlim] sample:		264.5 time, 260.4 real, 6512.7 MB
[runlim] sample:		274.5 time, 270.4 real, 6512.7 MB
[runlim] sample:		284.5 time, 280.4 real, 6512.7 MB
[runlim] sample:		294.5 time, 290.4 real, 6512.7 MB
[runlim] sample:		304.5 time, 300.4 real, 6512.7 MB
[runlim] sample:		314.5 time, 310.4 real, 6512.7 MB
[runlim] sample:		324.5 time, 320.4 real, 6512.7 MB
Presolve has eliminated 0 rows and 0 columns...
Detecting symmetries...
[runlim] sample:		334.5 time, 330.4 real, 7648.3 MB
MIP Presolve modified 12264 coefficients.
Reduced MIP has 162519 rows, 243789 columns, and 71011053 nonzeros.
Reduced MIP has 243789 binaries, 0 generals, 0 SOSs, and 0 indicators.
Presolve time = 99.16 sec. (86304.90 ticks)
[runlim] sample:		356.1 time, 340.4 real, 9155.2 MB
Probing time = 0.63 sec. (101.80 ticks)
Clique table members: 162519.
MIP emphasis: balance optimality and feasibility.
MIP search method: dynamic search.
Parallel mode: deterministic, using up to 8 threads.
[runlim] sample:		385.0 time, 350.4 real, 9388.2 MB
[runlim] sample:		434.9 time, 360.4 real, 15283.2 MB
[runlim] sample:		484.9 time, 370.4 real, 14449.2 MB
[runlim] sample:		534.9 time, 380.4 real, 15693.3 MB
[runlim] sample:		583.7 time, 390.4 real, 17310.6 MB
[runlim] sample:		633.7 time, 400.4 real, 17314.6 MB
[runlim] sample:		683.7 time, 410.4 real, 18926.4 MB
[runlim] sample:		733.7 time, 420.4 real, 18929.7 MB
[runlim] sample:		783.7 time, 430.4 real, 18942.5 MB
[runlim] sample:		833.7 time, 440.4 real, 18943.0 MB
[runlim] sample:		883.7 time, 450.4 real, 18948.4 MB
[runlim] sample:		933.7 time, 460.4 real, 19227.1 MB
[runlim] sample:		983.7 time, 470.4 real, 19379.8 MB
[runlim] sample:		1033.7 time, 480.4 real, 19578.4 MB
[runlim] sample:		1083.7 time, 490.4 real, 19732.3 MB
[runlim] sample:		1133.7 time, 500.4 real, 19885.9 MB
[runlim] sample:		1173.8 time, 510.4 real, 20984.2 MB
[runlim] sample:		1216.4 time, 520.4 real, 22944.9 MB
[runlim] sample:		1266.4 time, 530.4 real, 22712.3 MB
[runlim] sample:		1316.3 time, 540.4 real, 21963.2 MB
[runlim] sample:		1366.3 time, 550.4 real, 21965.4 MB
[runlim] sample:		1416.3 time, 560.4 real, 21965.4 MB
[runlim] sample:		1462.4 time, 570.4 real, 21967.5 MB
[runlim] sample:		1502.4 time, 580.4 real, 21969.7 MB
[runlim] sample:		1542.4 time, 590.4 real, 21969.7 MB
[runlim] sample:		1582.4 time, 600.4 real, 21971.8 MB
[runlim] sample:		1622.4 time, 610.4 real, 21971.8 MB
[runlim] sample:		1662.4 time, 620.4 real, 21974.0 MB
[runlim] sample:		1702.4 time, 630.4 real, 21974.0 MB
[runlim] sample:		1742.4 time, 640.4 real, 21974.0 MB
[runlim] end:			Thu Oct  3 15:35:52 2024
[runlim] status:		out of time
[runlim] result:		2
[runlim] children:		0
[runlim] real:			650.31 seconds
[runlim] time:			1801.80 seconds
[runlim] space:			23404.5 MB
[runlim] samples:		6499
